Set parameter TSPort to value 51199
Set parameter TokenServer to value "open-license1.lanl.gov"
Set parameter TimeLimit to value 256
Set parameter Threads to value 1
Gurobi Optimizer version 10.0.3 build v10.0.3rc0 (linux64)

CPU model: Intel(R) Xeon(R) CPU E5-2695 v4 @ 2.10GHz, instruction set [SSE2|AVX|AVX2]
Thread count: 36 physical cores, 72 logical processors, using up to 1 threads

Optimize a model with 0 rows, 598 columns and 0 nonzeros
Model fingerprint: 0xad92ac9b
Model has 2588 quadratic objective terms
Variable types: 0 continuous, 598 integer (598 binary)
Coefficient statistics:
  Matrix range     [0e+00, 0e+00]
  Objective range  [2e+00, 3e+01]
  QObjective range [8e+00, 8e+00]
  Bounds range     [1e+00, 1e+00]
  RHS range        [0e+00, 0e+00]
Found heuristic solution: objective 0.0000000
Found heuristic solution: objective -1018.000000
Found heuristic solution: objective -3568.000000
Found heuristic solution: objective -3594.000000
Presolve time: 0.23s
Presolved: 2588 rows, 3186 columns, 7764 nonzeros
Variable types: 0 continuous, 3186 integer (3186 binary)

Root relaxation: objective -4.851000e+03, 753 iterations, 0.02 seconds (0.01 work units)

    Nodes    |    Current Node    |     Objective Bounds      |     Work
 Expl Unexpl |  Obj  Depth IntInf | Incumbent    BestBd   Gap | It/Node Time

     0     0 -4851.0000    0  598 -3594.0000 -4851.0000  35.0%     -    0s
     0     0 -4454.0000    0  806 -3594.0000 -4454.0000  23.9%     -    0s
     0     0 -4452.0000    0  811 -3594.0000 -4452.0000  23.9%     -    0s
     0     0 -4358.2500    0  878 -3594.0000 -4358.2500  21.3%     -    0s
     0     0 -4358.2500    0  878 -3594.0000 -4358.2500  21.3%     -    0s
     0     2 -4357.9167    0  876 -3594.0000 -4357.9167  21.3%     -    1s
   514   483 -3895.0000   64 1073 -3594.0000 -4193.9118  16.7%  79.4    5s
   534   496 -3956.2500   53 1759 -3594.0000 -3980.9372  10.8%  76.4   10s
   544   503 -3748.5000   83 2073 -3594.0000 -3926.0515  9.24%  75.0   15s
   551   508 -3887.6555   28 2237 -3594.0000 -3887.6555  8.17%  74.0   20s
   559   513 -3606.0000  118 2569 -3594.0000 -3854.4292  7.25%  73.0   27s
   561   514 -3849.1932   36 2621 -3594.0000 -3849.1932  7.10%  72.7   30s
   567   518 -3830.3144   40 2625 -3594.0000 -3830.3144  6.58%  72.0   35s
   574   523 -3723.0000   94 2698 -3594.0000 -3821.2551  6.32%  71.1   40s
   582   528 -3796.0000   75 2733 -3594.0000 -3814.7660  6.14%  70.1   45s
   593   536 -3810.2314   10 2774 -3594.0000 -3810.2314  6.02%  68.8   50s
   602   542 -3803.2288   50 2788 -3594.0000 -3803.2288  5.82%  67.8   55s
   614   550 -3797.1729   64 2757 -3594.0000 -3797.1729  5.65%  66.4   60s
   622   555 -3792.4683   72 2795 -3594.0000 -3792.4683  5.52%  65.6   65s
   638   566 -3788.1315    2 2851 -3594.0000 -3788.1315  5.40%  63.9   70s
   653   576 -3615.0000  121 2850 -3594.0000 -3783.9055  5.28%  62.5   75s
   671   588 -3780.9620    4 2869 -3594.0000 -3780.9620  5.20%  60.8   80s
   689   600 -3675.0000  104 2891 -3594.0000 -3777.9894  5.12%  59.2   85s
   712   615 -3616.0000  122 2858 -3594.0000 -3775.1997  5.04%  57.3   90s
   728   627 -3774.9519   76 2587 -3594.0000 -3774.9519  5.03%   321   99s
   729   627 -3629.0000  112 2744 -3594.0000 -3774.9519  5.03%   321  104s
   730   628 -3774.9519   19 2810 -3594.0000 -3774.9519  5.03%   320  107s
   733   630 -3615.0000  121 2868 -3594.0000 -3774.9519  5.03%   319  110s
   743   637 -3771.7719   46 2873 -3594.0000 -3771.7719  4.95%   315  115s
   756   645 -3768.9567   70 2892 -3594.0000 -3768.9567  4.87%   309  120s
   766   652 -3766.1042   37 2881 -3594.0000 -3766.1042  4.79%   305  125s
   779   661 -3764.6222   36 2908 -3594.0000 -3764.6222  4.75%   300  130s
   795   671 -3762.8195   67 2924 -3594.0000 -3762.8195  4.70%   294  135s
   810   681 -3761.0350   49 2937 -3594.0000 -3761.0350  4.65%   289  140s
   832   696 -3759.9524   67 2944 -3594.0000 -3759.9524  4.62%   281  145s
   852   709 -3758.5928   19 2963 -3594.0000 -3758.5928  4.58%   274  150s
   874   724 -3723.0000   94 2948 -3594.0000 -3757.6476  4.55%   268  155s
   900   741 -3756.9976   49 2965 -3594.0000 -3756.9976  4.54%   260  160s
   919   754 -3756.1114    3 2963 -3594.0000 -3756.1114  4.51%   254  165s
   942   769 -3755.1341   70 2956 -3594.0000 -3755.1341  4.48%   248  170s
   963   783 -3754.5240   34 2956 -3594.0000 -3754.5240  4.47%   243  175s
   985   798 -3753.4616   24 2970 -3594.0000 -3753.4616  4.44%   237  180s
  1008   813 -3752.9631   52 2965 -3594.0000 -3752.9631  4.42%   232  189s
  1009   816 -3751.4791   19 2917 -3594.0000 -3752.7521  4.42%   382  191s
  1011   817 -3748.7685   20 2875 -3594.0000 -3751.4788  4.38%   388  195s
  1014   819 -3746.6082   21 2857 -3594.0000 -3750.5210  4.36%   397  200s
  1017   821 -3741.4597   23 2807 -3594.0000 -3750.5210  4.36%   406  205s
  1021   824 -3738.4003   25 2734 -3594.0000 -3750.5210  4.36%   418  210s
  1024   826 -3733.4918   26 2705 -3594.0000 -3750.5210  4.36%   428  215s
  1028   829 -3731.1408   28 2706 -3594.0000 -3750.5210  4.36%   437  220s
  1034   833 -3725.5284   31 2624 -3594.0000 -3750.5210  4.36%   449  226s
  1038   835 -3723.0318   33 2593 -3594.0000 -3750.5210  4.36%   457  230s
  1042   838 -3714.3310   35 2592 -3594.0000 -3750.5210  4.36%   467  235s
  1047   841 -3714.2172   38 2523 -3594.0000 -3750.5210  4.36%   478  240s
  1053   845 -3704.1533   41 2446 -3594.0000 -3750.5210  4.36%   489  245s
  1059   849 -3697.9388   44 2415 -3594.0000 -3750.5210  4.36%   498  250s
  1066   854 -3689.8284   47 2381 -3594.0000 -3750.5210  4.36%   507  255s

Cutting planes:
  Gomory: 17
  MIR: 102
  Flow cover: 1201
  Zero half: 372
  Mod-K: 3
  RLT: 96
  BQP: 141

Explored 1069 nodes (548088 simplex iterations) in 256.00 seconds (293.75 work units)
Thread count was 1 (of 72 available processors)

Solution count 4: -3594 -3568 -1018 0 

Time limit reached
Best objective -3.594000000000e+03, best bound -3.750000000000e+03, gap 4.3406%

User-callback calls 21268, time in user-callback 0.09 sec

BQP_SOLUTION, 598, 2588, -1331.000000, 256.000580, 1, 1, 1, -1, 1, 1, 1, 1, 1, 1, 1, 1, 1, 1, -1, 1, 1, 1, 1, -1, 1, 1, 1, 1, 1, -1, 1, 1, 1, -1, 1, 1, 1, 1, 1, 1, 1, 1, 1, -1, 1, 1, 1, 1, -1, 1, 1, 1, 1, 1, -1, 1, 1, 1, -1, 1, 1, 1, -1, -1, -1, 1, 1, -1, -1, 1, 1, 1, 1, -1, 1, 1, 1, -1, -1, 1, 1, 1, -1, -1, 1, 1, -1, 1, -1, 1, -1, 1, 1, -1, 1, 1, -1, -1, -1, -1, 1, 1, 1, -1, -1, 1, -1, 1, -1, -1, 1, 1, 1, -1, -1, -1, 1, 1, 1, -1, 1, 1, -1, -1, -1, 1, 1, -1, 1, 1, -1, 1, -1, 1, -1, -1, 1, -1, -1, -1, 1, 1, -1, 1, -1, 1, 1, -1, -1, 1, -1, 1, -1, -1, -1, -1, 1, 1, -1, -1, 1, -1, -1, -1, -1, 1, 1, -1, -1, -1, 1, -1, -1, 1, -1, -1, -1, -1, -1, 1, -1, 1, -1, -1, -1, -1, -1, -1, -1, 1, 1, -1, -1, -1, -1, -1, -1, -1, 1, -1, 1, -1, -1, 1, -1, -1, -1, -1, 1, -1, -1, 1, -1, 1, -1, -1, -1, 1, 1, -1, 1, -1, 1, 1, 1, -1, -1, -1, 1, 1, -1, 1, -1, 1, -1, -1, -1, 1, 1, 1, -1, 1, 1, 1, -1, 1, -1, 1, 1, -1, 1, -1, 1, 1, -1, 1, -1, 1, 1, -1, 1, 1, 1, 1, 1, 1, -1, 1, 1, 1, 1, 1, 1, -1, -1, -1, 1, 1, 1, -1, 1, -1, 1, -1, 1, -1, 1, 1, -1, -1, -1, 1, 1, 1, -1, -1, 1, 1, -1, -1, -1, 1, 1, -1, 1, 1, -1, 1, 1, -1, 1, -1, 1, -1, 1, 1, -1, 1, -1, 1, 1, -1, 1, -1, 1, 1, -1, 1, 1, 1, -1, 1, -1, -1, 1, -1, 1, -1, -1, 1, -1, -1, -1, -1, 1, -1, 1, -1, -1, 1, -1, -1, -1, -1, 1, 1, -1, 1, 1, 1, 1, -1, -1, -1, 1, -1, 1, 1, -1, 1, -1, 1, -1, -1, 1, -1, 1, -1, -1, 1, -1, 1, -1, 1, -1, 1, 1, -1, 1, 1, 1, 1, -1, -1, 1, 1, 1, -1, -1, -1, 1, 1, -1, -1, 1, 1, 1, -1, -1, -1, 1, 1, 1, 1, 1, 1, 1, -1, 1, -1, 1, 1, -1, 1, 1, 1, 1, -1, -1, 1, 1, 1, -1, -1, 1, 1, 1, -1, -1, 1, -1, 1, -1, -1, 1, -1, 1, -1, 1, 1, 1, -1, -1, -1, -1, 1, -1, -1, 1, -1, 1, 1, -1, -1, -1, 1, -1, -1, 1, -1, 1, -1, -1, -1, 1, -1, -1, -1, -1, 1, 1, -1, -1, 1, 1, -1, -1, -1, -1, -1, -1, 1, -1, 1, 1, 1, 1, 1, 1, -1, 1, -1, -1, 1, 1, 1, -1, -1, 1, 1, 1, -1, 1, 1, 1, 1, -1, -1, 1, 1, 1, -1, -1, 1, 1, 1, -1, 1, 1, 1, 1, -1, 1, 1, 1, 1, -1, -1, 1, 1, 1, -1, 1, -1, 1, -1, 1, 1, 1, 1, -1, -1, 1, 1, 1, -1, 1, 1, -1, 1, 1, -1, 1, 1, 1, 1, -1, 1, 1, 1, -1, -1, 1, -1, 1, -1, 1, 1, 1, -1, 1, 1, -1, 1, -1, 1, -1, 1, 1, 1, 1, -1, 1, 1, -1, 1, 1, 1, -1, 1, 1, -1
BQP_DATA, 598, 2588, -1331.000000, -1487.000000, -3594.000000, -3750.000000, 256.000580, 1695, 1069
